1635836400
1635865200
1635922800
1635951600
1636009200
1636038000
1636354800
1636383600
1636441200
1636470000
1636527600
1636556400
1636614000
1636642800
1636700400
1636729200
1636873200
1636902000
1637046000
1637074800
1637132400
1637161200
1637218800
1637247600
1637305200
1637334000
1637564400
1637593200
1637650800
1637679600
1637737200
1637766000
1637823600
1637852400
1637910000
1637938800
1638169200
1638198000
1638255600
1638284400
1638198000
1638205200
